param N := 10;
param M := 10;
param K := 10;
param x_max := 10;
param y_max := 10;
param a := 1.0;
param b := 1.0;
param T := 200;
param i_start := 1 1 2 1 3 4 4 1 5 5 6 3 7 1 8 10 9 1 10 10;
param j_start := 1 1 2 10 3 1 4 9 5 2 6 10 7 6 8 6 9 1 10 10;
param i_end := 1 1 2 1 3 1 4 4 5 3 6 5 7 10 8 1 9 10 10 1;
param j_end := 1 10 2 1 3 9 4 1 5 10 6 2 7 6 8 6 9 10 10 1;